
Gurobi 9.5.2 (mac64[arm]) logging started Sun Apr 30 17:01:05 2023

Set parameter LogFile to value "Java/output/special_mip/scenario_seed_0_nJob_50_machineCount_2/mip_increment_2/log.txt"
Gurobi Optimizer version 9.5.2 build v9.5.2rc0 (mac64[arm])
Thread count: 8 physical cores, 8 logical processors, using up to 8 threads
Optimize a model with 1966 rows, 42900 columns and 330052 nonzeros
Model fingerprint: 0x31b15f38
Variable types: 0 continuous, 42900 integer (42900 binary)
Coefficient statistics:
  Matrix range     [1e+00, 3e+02]
  Objective range  [1e+00, 5e+06]
  Bounds range     [1e+00, 1e+00]
  RHS range        [1e+00, 1e+00]
Presolve removed 43 rows and 3754 columns
Presolve time: 0.33s
Presolved: 1923 rows, 39146 columns, 301316 nonzeros
Variable types: 0 continuous, 39146 integer (39144 binary)

Root relaxation: objective 2.061341e+04, 25970 iterations, 3.86 seconds (9.12 work units)

    Nodes    |    Current Node    |     Objective Bounds      |     Work
 Expl Unexpl |  Obj  Depth IntInf | Incumbent    BestBd   Gap | It/Node Time

     0     0 20613.4138    0  529          - 20613.4138      -     -    4s
H    0     0                    2.882966e+07 20613.4138   100%     -    4s
H    0     0                    7442604.0000 20613.4138   100%     -    4s
H    0     0                    5171720.0000 20613.4138   100%     -    4s
     0     0 20639.6139    0  661 5171720.00 20639.6139   100%     -    6s
H    0     0                    5142726.0000 20639.6139   100%     -    6s
H    0     0                    4963976.0000 20639.6139   100%     -    6s
H    0     0                    3904694.0000 20639.6139  99.5%     -   15s
     0     0 20659.5141    0  674 3904694.00 20659.5141  99.5%     -   18s
     0     0 20659.5141    0  671 3904694.00 20659.5141  99.5%     -   18s
     0     0 20659.5141    0  675 3904694.00 20659.5141  99.5%     -   18s
     0     0 20696.5978    0  754 3904694.00 20696.5978  99.5%     -   21s
H    0     0                    3904164.0000 20696.5978  99.5%     -   21s
H    0     0                    3904064.0000 20696.5978  99.5%     -   21s
H    0     0                    3453948.0000 20696.5978  99.4%     -   22s
     0     0 20708.6343    0  770 3453948.00 20708.6343  99.4%     -   24s
     0     0 20713.8945    0  801 3453948.00 20713.8945  99.4%     -   25s
     0     0 20714.4883    0  807 3453948.00 20714.4883  99.4%     -   25s
     0     0 20714.5216    0  812 3453948.00 20714.5216  99.4%     -   25s
     0     0 20714.5248    0  819 3453948.00 20714.5248  99.4%     -   25s
     0     0 20744.3454    0  856 3453948.00 20744.3454  99.4%     -   28s
H    0     0                    3453942.0000 20744.3454  99.4%     -   28s
     0     0 20752.1385    0  886 3453942.00 20752.1385  99.4%     -   30s
     0     0 20762.5489    0  921 3453942.00 20762.5489  99.4%     -   32s
     0     0 20769.2826    0  921 3453942.00 20769.2826  99.4%     -   34s
     0     0 20769.3150    0  933 3453942.00 20769.3150  99.4%     -   34s
     0     0 20792.1178    0  932 3453942.00 20792.1178  99.4%     -   37s
H    0     0                    3169015.0000 20792.1178  99.3%     -   37s
     0     0 20800.4773    0  946 3169015.00 20800.4773  99.3%     -   39s
     0     0 20806.0596    0  976 3169015.00 20806.0596  99.3%     -   41s
     0     0 20806.7840    0  985 3169015.00 20806.7840  99.3%     -   41s
     0     0 20806.9958    0 1006 3169015.00 20806.9958  99.3%     -   42s
     0     0 20807.0312    0 1013 3169015.00 20807.0312  99.3%     -   42s
     0     0 20844.2588    0  984 3169015.00 20844.2588  99.3%     -   46s
H    0     0                    3165371.0000 20844.2588  99.3%     -   46s
     0     0 20851.4609    0  987 3165371.00 20851.4609  99.3%     -   48s
     0     0 20854.8557    0  999 3165371.00 20854.8557  99.3%     -   49s
     0     0 20856.9894    0 1002 3165371.00 20856.9894  99.3%     -   50s
     0     0 20857.4894    0 1008 3165371.00 20857.4894  99.3%     -   50s
     0     0 20857.5592    0 1011 3165371.00 20857.5592  99.3%     -   50s
     0     0 20885.4091    0  999 3165371.00 20885.4091  99.3%     -   54s
     0     0 20892.7495    0 1024 3165371.00 20892.7495  99.3%     -   56s
     0     0 20895.2591    0 1029 3165371.00 20895.2591  99.3%     -   57s
     0     0 20895.7242    0 1065 3165371.00 20895.7242  99.3%     -   57s
     0     0 20895.8196    0 1061 3165371.00 20895.8196  99.3%     -   58s
     0     0 20909.0495    0 1048 3165371.00 20909.0495  99.3%     -   61s
     0     0 20912.9273    0 1080 3165371.00 20912.9273  99.3%     -   62s
     0     0 20918.5640    0 1101 3165371.00 20918.5640  99.3%     -   64s
     0     0 20920.2416    0 1124 3165371.00 20920.2416  99.3%     -   65s
     0     0 20922.2238    0 1151 3165371.00 20922.2238  99.3%     -   67s
     0     0 20923.1366    0 1153 3165371.00 20923.1366  99.3%     -   68s
     0     0 20923.2012    0 1173 3165371.00 20923.2012  99.3%     -   68s
     0     0 20947.9463    0 1099 3165371.00 20947.9463  99.3%     -   73s
H    0     0                    2980313.0000 20947.9463  99.3%     -   73s
     0     0 20953.5620    0 1108 2980313.00 20953.5620  99.3%     -   75s
     0     0 20956.0318    0 1162 2980313.00 20956.0318  99.3%     -   76s
     0     0 20957.4099    0 1163 2980313.00 20957.4099  99.3%     -   77s
     0     0 20957.8067    0 1173 2980313.00 20957.8067  99.3%     -   78s
     0     0 20958.1964    0 1164 2980313.00 20958.1964  99.3%     -   78s
     0     0 20958.2579    0 1159 2980313.00 20958.2579  99.3%     -   78s
     0     0 20979.8988    0 1111 2980313.00 20979.8988  99.3%     -   83s
H    0     0                    2980233.0000 20979.8988  99.3%     -   83s
H    0     0                    2980215.0000 20979.8988  99.3%     -   83s
H    0     0                    156986.00000 20979.8988  86.6%     -  129s
     0     0 20988.0182    0 1140 156986.000 20988.0182  86.6%     -  132s
     0     0 20993.1654    0 1158 156986.000 20993.1654  86.6%     -  134s
     0     0 20995.3306    0 1152 156986.000 20995.3306  86.6%     -  135s
     0     0 20996.0177    0 1160 156986.000 20996.0177  86.6%     -  136s
     0     0 20996.5176    0 1177 156986.000 20996.5176  86.6%     -  136s
     0     0 20996.6587    0 1172 156986.000 20996.6587  86.6%     -  136s
     0     0 21056.4035    0 1177 156986.000 21056.4035  86.6%     -  142s
H    0     0                    155498.00000 21056.4035  86.5%     -  142s
H    0     0                    130396.00000 21056.4035  83.9%     -  142s
     0     0 21074.9404    0 1160 130396.000 21074.9404  83.8%     -  146s
     0     0 21076.6046    0 1197 130396.000 21076.6046  83.8%     -  147s
     0     0 21079.4653    0 1202 130396.000 21079.4653  83.8%     -  149s
     0     0 21079.9493    0 1218 130396.000 21079.9493  83.8%     -  150s
     0     0 21080.1569    0 1198 130396.000 21080.1569  83.8%     -  150s
     0     0 21100.4354    0 1204 130396.000 21100.4354  83.8%     -  155s
H    0     0                    130380.00000 21100.4354  83.8%     -  155s
     0     0 21106.2649    0 1215 130380.000 21106.2649  83.8%     -  158s
     0     0 21108.2702    0 1215 130380.000 21108.2702  83.8%     -  159s
     0     0 21109.8068    0 1217 130380.000 21109.8068  83.8%     -  161s
     0     0 21110.5948    0 1225 130380.000 21110.5948  83.8%     -  161s
     0     0 21111.2354    0 1234 130380.000 21111.2354  83.8%     -  162s
     0     0 21112.0416    0 1255 130380.000 21112.0416  83.8%     -  163s
     0     0 21112.2061    0 1255 130380.000 21112.2061  83.8%     -  163s
     0     0 21121.5814    0 1247 130380.000 21121.5814  83.8%     -  166s
H    0     0                    125215.00000 21121.5814  83.1%     -  166s
     0     0 21127.0747    0 1252 125215.000 21127.0747  83.1%     -  169s
     0     0 21129.6443    0 1267 125215.000 21129.6443  83.1%     -  171s
     0     0 21130.5671    0 1285 125215.000 21130.5671  83.1%     -  171s
     0     0 21130.9969    0 1300 125215.000 21130.9969  83.1%     -  172s
     0     0 21141.0779    0 1216 125215.000 21141.0779  83.1%     -  176s
H    0     0                    123592.00000 21141.0779  82.9%     -  176s
H    0     0                    117768.00000 21141.0779  82.0%     -  176s
     0     0 21145.2132    0 1231 117768.000 21145.2132  82.0%     -  179s
     0     0 21147.5644    0 1225 117768.000 21147.5644  82.0%     -  181s
     0     0 21148.6327    0 1256 117768.000 21148.6327  82.0%     -  182s
     0     0 21149.0951    0 1259 117768.000 21149.0951  82.0%     -  182s
     0     0 21155.7740    0 1258 117768.000 21155.7740  82.0%     -  185s
H    0     0                    108509.00000 21155.7740  80.5%     -  186s
     0     0 21158.2397    0 1254 108509.000 21158.2397  80.5%     -  187s
     0     0 21159.7357    0 1269 108509.000 21159.7357  80.5%     -  189s
     0     0 21160.4255    0 1271 108509.000 21160.4255  80.5%     -  190s
     0     0 21160.7009    0 1259 108509.000 21160.7009  80.5%     -  190s
     0     0 21163.3489    0 1270 108509.000 21163.3489  80.5%     -  193s
H    0     0                    106956.00000 21163.3489  80.2%     -  193s
     0     0 21165.4874    0 1263 106956.000 21165.4874  80.2%     -  194s
     0     0 21166.5822    0 1301 106956.000 21166.5822  80.2%     -  195s
     0     0 21166.8945    0 1329 106956.000 21166.8945  80.2%     -  196s
     0     0 21168.3937    0 1318 106956.000 21168.3937  80.2%     -  198s
     0     0 21168.3937    0 1303 106956.000 21168.3937  80.2%     -  199s
H    0     0                    100433.00000 21168.3937  78.9%     -  219s
     0     0 21168.3937    0  494 100433.000 21168.3937  78.9%     -  223s
H    0     0                    100377.00000 21168.3937  78.9%     -  223s
H    0     0                    100373.00000 21168.3937  78.9%     -  223s
H    0     0                    100321.00000 21168.3937  78.9%     -  225s
     0     0 21168.3937    0  623 100321.000 21168.3937  78.9%     -  225s
H    0     0                    100303.00000 21168.3937  78.9%     -  225s
H    0     0                    98601.000000 21168.3937  78.5%     -  225s
     0     0 21168.3937    0  769 98601.0000 21168.3937  78.5%     -  227s
H    0     0                    98589.000000 21168.3937  78.5%     -  231s
     0     0 21168.3937    0  848 98589.0000 21168.3937  78.5%     -  231s
H    0     0                    94629.000000 21168.3937  77.6%     -  234s
H    0     0                    93035.000000 21168.3937  77.2%     -  234s
     0     0 21168.3937    0  890 93035.0000 21168.3937  77.2%     -  234s
     0     0 21168.3937    0  920 93035.0000 21168.3937  77.2%     -  238s
     0     0 21168.3937    0  998 93035.0000 21168.3937  77.2%     -  241s
     0     0 21168.3937    0 1038 93035.0000 21168.3937  77.2%     -  243s
H    0     0                    90309.000000 21168.3937  76.6%     -  248s
     0     0 21168.3937    0 1095 90309.0000 21168.3937  76.6%     -  248s
     0     0 21168.3937    0 1150 90309.0000 21168.3937  76.6%     -  251s
     0     0 21168.3937    0 1179 90309.0000 21168.3937  76.6%     -  254s
     0     0 21168.3937    0 1244 90309.0000 21168.3937  76.6%     -  255s
     0     0 21169.3264    0 1247 90309.0000 21169.3264  76.6%     -  256s
     0     0 21169.4096    0 1260 90309.0000 21169.4096  76.6%     -  256s
     0     0 21169.4586    0 1263 90309.0000 21169.4586  76.6%     -  257s
     0     0 21169.5188    0 1260 90309.0000 21169.5188  76.6%     -  257s
     0     0 21169.5275    0 1263 90309.0000 21169.5275  76.6%     -  257s
H    0     0                    90203.000000 21169.5275  76.5%     -  263s
H    0     0                    42316.000000 21169.5275  50.0%     -  263s
H    0     0                    42284.000000 21169.5275  49.9%     -  263s
H    0     0                    42225.000000 21169.5275  49.9%     -  263s
H    0     0                    41979.000000 21169.5275  49.6%     -  263s
H    0     0                    41635.000000 21169.5275  49.2%     -  263s
     0     0 21193.1834    0 1269 41635.0000 21193.1834  49.1%     -  263s
H    0     0                    41621.000000 21193.1834  49.1%     -  263s
H    0     0                    41525.000000 21193.1834  49.0%     -  263s
     0     0 21195.7238    0 1270 41525.0000 21195.7238  49.0%     -  265s
     0     0 21196.5392    0 1270 41525.0000 21196.5392  49.0%     -  266s
     0     0 21196.6802    0 1263 41525.0000 21196.6802  49.0%     -  266s
     0     0 21225.1381    0 1241 41525.0000 21225.1381  48.9%     -  271s
H    0     0                    41447.000000 21225.1381  48.8%     -  288s
H    0     0                    40984.000000 21225.1381  48.2%     -  290s
H    0     0                    40791.000000 21225.1381  48.0%     -  290s
     0     0 21230.1523    0 1256 40791.0000 21230.1523  48.0%     -  290s
     0     0 21231.1485    0 1286 40791.0000 21231.1485  48.0%     -  291s
H    0     0                    32511.000000 21231.1485  34.7%     -  291s
     0     0 21231.4500    0 1287 32511.0000 21231.4500  34.7%     -  292s
H    0     0                    32057.000000 21231.4500  33.8%     -  292s
H    0     0                    31053.000000 21231.4500  31.6%     -  294s
     0     0 21240.2563    0 1246 31053.0000 21240.2563  31.6%     -  294s
H    0     0                    31049.000000 21240.2563  31.6%     -  294s
H    0     0                    30898.000000 21240.2563  31.3%     -  294s
H    0     0                    28169.000000 21240.2563  24.6%     -  297s
H    0     0                    26263.000000 21240.2563  19.1%     -  297s
     0     0 21247.9497    0 1256 26263.0000 21247.9497  19.1%     -  297s
     0     0 21251.2854    0 1270 26263.0000 21251.2854  19.1%     -  299s
     0     0 21251.8643    0 1294 26263.0000 21251.8643  19.1%     -  299s
H    0     0                    26193.000000 21251.8643  18.9%     -  302s
H    0     0                    25838.000000 21251.8643  17.7%     -  302s
     0     0 21257.1420    0 1293 25838.0000 21257.1420  17.7%     -  302s
     0     0 21263.1847    0 1309 25838.0000 21263.1847  17.7%     -  305s
     0     0 21265.0267    0 1344 25838.0000 21265.0267  17.7%     -  306s
     0     0 21265.5992    0 1334 25838.0000 21265.5992  17.7%     -  307s
     0     0 21272.1995    0 1335 25838.0000 21272.1995  17.7%     -  310s
H    0     0                    25250.000000 21272.1995  15.8%     -  310s
     0     0 21274.8627    0 1369 25250.0000 21274.8627  15.7%     -  312s
     0     0 21276.4006    0 1355 25250.0000 21276.4006  15.7%     -  314s
     0     0 21276.8028    0 1379 25250.0000 21276.8028  15.7%     -  315s
     0     0 21279.2893    0 1394 25250.0000 21279.2893  15.7%     -  317s
     0     0 21279.2893    0 1386 25250.0000 21279.2893  15.7%     -  318s
H    0     2                    25218.000000 21279.2893  15.6%     -  329s
     0     2 21279.2893    0 1376 25218.0000 21279.2893  15.6%     -  329s
     1     4 21283.9862    1 1300 25218.0000 21279.2893  15.6%  5213  332s
     3     8 21291.5266    2 1242 25218.0000 21283.9862  15.6%  6021  350s
     7    16 21307.3612    3 1277 25218.0000 21288.3182  15.6% 11429  357s
    15    24 21330.6935    4 1299 25218.0000 21295.0197  15.6% 10771  366s
    23    32 21311.7942    4 1292 25218.0000 21295.0197  15.6% 14360  377s
H   31    40                    25193.000000 21298.5823  15.5% 13309  394s
H   32    40                    25189.000000 21298.5823  15.4% 13222  394s
H   33    40                    25078.000000 21298.5823  15.1% 12919  394s
H   34    40                    25066.000000 21298.5823  15.0% 12714  394s
    39    48 21327.4725    5 1289 25066.0000 21298.5823  15.0% 12178  401s
    47    57 21338.6664    6 1267 25066.0000 21298.5823  15.0% 11686  407s
    56    65 21330.8201    6 1269 25066.0000 21298.5823  15.0% 11192  418s
H   64    74                    25046.000000 21298.5823  15.0% 11423  435s
H   65    74                    25037.000000 21298.5823  14.9% 11356  435s
    73    81 21358.6776    7 1194 25037.0000 21298.5823  14.9% 11138  446s
    82    91 21353.4309    8 1184 25037.0000 21298.5823  14.9% 11519  454s
    92   102 21378.2772    9 1174 25037.0000 21298.5823  14.9% 11212  473s
H  103   110                    25029.000000 21298.5823  14.9% 10647  493s
H  107   110                    25023.000000 21298.5823  14.9% 10390  493s
H  110   110                    24935.000000 21298.5823  14.6% 10297  493s
   111   123 21360.5010   10 1212 24935.0000 21298.5823  14.6% 10276  505s
   124   139 21367.1912   11 1170 24935.0000 21298.5823  14.6% 10058  515s
H  140   150                    24922.000000 21298.5823  14.5%  9499  533s
H  142   150                    24787.000000 21298.5823  14.1%  9588  533s
H  148   150                    24764.000000 21298.5823  14.0%  9451  533s
H  153   160                    24762.000000 21298.5823  14.0%  9402  547s
H  156   160                    24760.000000 21298.5823  14.0%  9432  547s
   165   173 21396.0966   13 1161 24760.0000 21298.5823  14.0%  9424  558s
H  178   181                    24744.000000 21298.5823  13.9%  9343  572s
H  182   181                    24664.000000 21298.5823  13.6%  9419  572s
H  183   181                    24632.000000 21298.5823  13.5%  9418  572s
H  184   181                    24617.000000 21298.5823  13.5%  9447  572s
   188   190 21481.4913   14 1139 24617.0000 21298.5823  13.5%  9392  592s
H  191   190                    24609.000000 21298.5823  13.5%  9311  592s
   197   203 21436.4246   15 1162 24609.0000 21298.5823  13.5%  9263  600s

Cutting planes:
  Cover: 11
  Clique: 241
  MIR: 477
  StrongCG: 243
  GUB cover: 300
  Zero half: 6
  RLT: 2

Explored 210 nodes (2412466 simplex iterations) in 600.01 seconds (1720.43 work units)
Thread count was 8 (of 8 available processors)

Solution count 10: 24609 24617 24632 ... 24922

Time limit reached
Best objective 2.460900000000e+04, best bound 2.129900000000e+04, gap 13.4504%
